NAME /Users/henri/Research/solvers/instances/idol-instances/robust/collection/cbp_Subramanyam_et_al_2020/CapBud_N10_11/models/uncertain_technology_matrix/
ROWS
 N  OBJ
 L  capacity
 L  c_810
 L  c_811
 L  c_812
 L  c_813
 L  c_814
 L  c_815
 L  c_816
 L  c_817
 L  c_818
 L  c_819
COLUMNS
    MARKER    'MARKER'                 'INTORG'
    x_0        OBJ        -1.12391
    x_0        c_810      1
    x_0        capacity   0.224782
    x_1        OBJ        -0.0386003
    x_1        c_811      1
    x_1        capacity   0.00772005
    x_2        OBJ        -8.876
    x_2        c_812      1
    x_2        capacity   1.7752
    x_3        OBJ        -1.56843
    x_3        c_813      1
    x_3        capacity   0.313686
    x_4        OBJ        -4.87839
    x_4        c_814      1
    x_4        capacity   0.975677
    x_5        OBJ        -0.554077
    x_5        c_815      1
    x_5        capacity   0.110815
    x_6        OBJ        -8.11903
    x_6        c_816      1
    x_6        capacity   1.62381
    x_7        OBJ        -7.56074
    x_7        c_817      1
    x_7        capacity   1.51215
    x_8        OBJ        -8.19757
    x_8        c_818      1
    x_8        capacity   1.63951
    x_9        OBJ        -7.14835
    x_9        c_819      1
    x_9        capacity   1.42967
    y_0        OBJ        -0.899129
    y_0        c_810      1
    y_0        capacity   0.224782
    y_1        OBJ        -0.0308802
    y_1        c_811      1
    y_1        capacity   0.00772005
    y_2        OBJ        -7.1008
    y_2        c_812      1
    y_2        capacity   1.7752
    y_3        OBJ        -1.25474
    y_3        c_813      1
    y_3        capacity   0.313686
    y_4        OBJ        -3.90271
    y_4        c_814      1
    y_4        capacity   0.975677
    y_5        OBJ        -0.443262
    y_5        c_815      1
    y_5        capacity   0.110815
    y_6        OBJ        -6.49522
    y_6        c_816      1
    y_6        capacity   1.62381
    y_7        OBJ        -6.04859
    y_7        c_817      1
    y_7        capacity   1.51215
    y_8        OBJ        -6.55806
    y_8        c_818      1
    y_8        capacity   1.63951
    y_9        OBJ        -5.71868
    y_9        c_819      1
    y_9        capacity   1.42967
    MARKER    'MARKER'                 'INTEND'
RHS
    RHS       capacity   24.0325
    RHS       c_810      1
    RHS       c_811      1
    RHS       c_812      1
    RHS       c_813      1
    RHS       c_814      1
    RHS       c_815      1
    RHS       c_816      1
    RHS       c_817      1
    RHS       c_818      1
    RHS       c_819      1
BOUNDS
 LI BND       x_0        0
 UI BND       x_0        1
 LI BND       x_1        0
 UI BND       x_1        1
 LI BND       x_2        0
 UI BND       x_2        1
 LI BND       x_3        0
 UI BND       x_3        1
 LI BND       x_4        0
 UI BND       x_4        1
 LI BND       x_5        0
 UI BND       x_5        1
 LI BND       x_6        0
 UI BND       x_6        1
 LI BND       x_7        0
 UI BND       x_7        1
 LI BND       x_8        0
 UI BND       x_8        1
 LI BND       x_9        0
 UI BND       x_9        1
 LI BND       y_0        0
 UI BND       y_0        1
 LI BND       y_1        0
 UI BND       y_1        1
 LI BND       y_2        0
 UI BND       y_2        1
 LI BND       y_3        0
 UI BND       y_3        1
 LI BND       y_4        0
 UI BND       y_4        1
 LI BND       y_5        0
 UI BND       y_5        1
 LI BND       y_6        0
 UI BND       y_6        1
 LI BND       y_7        0
 UI BND       y_7        1
 LI BND       y_8        0
 UI BND       y_8        1
 LI BND       y_9        0
 UI BND       y_9        1
ENDATA
